solution status: time limit reached
objective value:                                 -116
x1                                                  1 	(obj:-1)
x10                                                 1 	(obj:-1)
x38                                                 1 	(obj:-1)
x43                                                 1 	(obj:-1)
x48                                                 1 	(obj:-1)
x57                                                 1 	(obj:-1)
x69                                                 1 	(obj:-1)
x73                                                 1 	(obj:-1)
x87                                                 1 	(obj:-1)
x91                                                 1 	(obj:-1)
x98                                                 1 	(obj:-1)
x106                                                1 	(obj:-1)
x119                                                1 	(obj:-1)
x125                                                1 	(obj:-1)
x134                                                1 	(obj:-1)
x139                                                1 	(obj:-1)
x150                                                1 	(obj:-1)
x153                                                1 	(obj:-1)
x161                                                1 	(obj:-1)
x169                                                1 	(obj:-1)
x180                                                1 	(obj:-1)
x187                                                1 	(obj:-1)
x207                                                1 	(obj:-1)
x222                                                1 	(obj:-1)
x227                                                1 	(obj:-1)
x237                                                1 	(obj:-1)
x248                                                1 	(obj:-1)
x267                                                1 	(obj:-1)
x278                                                1 	(obj:-1)
x283                                                1 	(obj:-1)
x290                                                1 	(obj:-1)
x303                                                1 	(obj:-1)
x306                                                1 	(obj:-1)
x331                                                1 	(obj:-1)
x341                                                1 	(obj:-1)
x349                                                1 	(obj:-1)
x353                                                1 	(obj:-1)
x366                                                1 	(obj:-1)
x374                                                1 	(obj:-1)
x377                                                1 	(obj:-1)
x386                                                1 	(obj:-1)
x410                                                1 	(obj:-1)
x426                                                1 	(obj:-1)
x438                                                1 	(obj:-1)
x445                                                1 	(obj:-1)
x451                                                1 	(obj:-1)
x459                                                1 	(obj:-1)
x469                                                1 	(obj:-1)
x478                                                1 	(obj:-1)
x487                                                1 	(obj:-1)
x497                                                1 	(obj:-1)
x517                                                1 	(obj:-1)
x543                                                1 	(obj:-1)
x545                                                1 	(obj:-1)
x555                                                1 	(obj:-1)
x564                                                1 	(obj:-1)
x570                                                1 	(obj:-1)
x581                                                1 	(obj:-1)
x587                                                1 	(obj:-1)
x597                                                1 	(obj:-1)
x606                                                1 	(obj:-1)
x610                                                1 	(obj:-1)
x621                                                1 	(obj:-1)
x630                                                1 	(obj:-1)
x635                                                1 	(obj:-1)
x642                                                1 	(obj:-1)
x651                                                1 	(obj:-1)
x657                                                1 	(obj:-1)
x665                                                1 	(obj:-1)
x673                                                1 	(obj:-1)
x682                                                1 	(obj:-1)
x694                                                1 	(obj:-1)
x699                                                1 	(obj:-1)
x706                                                1 	(obj:-1)
x716                                                1 	(obj:-1)
x723                                                1 	(obj:-1)
x734                                                1 	(obj:-1)
x746                                                1 	(obj:-1)
x759                                                1 	(obj:-1)
x763                                                1 	(obj:-1)
x771                                                1 	(obj:-1)
x782                                                1 	(obj:-1)
x787                                                1 	(obj:-1)
x797                                                1 	(obj:-1)
x801                                                1 	(obj:-1)
x809                                                1 	(obj:-1)
x818                                                1 	(obj:-1)
x824                                                1 	(obj:-1)
x838                                                1 	(obj:-1)
x842                                                1 	(obj:-1)
x855                                                1 	(obj:-1)
x863                                                1 	(obj:-1)
x871                                                1 	(obj:-1)
x873                                                1 	(obj:-1)
x885                                                1 	(obj:-1)
x895                                                1 	(obj:-1)
x897                                                1 	(obj:-1)
x905                                                1 	(obj:-1)
x917                                                1 	(obj:-1)
x923                                                1 	(obj:-1)
x933                                                1 	(obj:-1)
x944                                                1 	(obj:-1)
x959                                                1 	(obj:-1)
x966                                                1 	(obj:-1)
x973                                                1 	(obj:-1)
x976                                                1 	(obj:-1)
x1001                                               1 	(obj:-1)
x1020                                               1 	(obj:-1)
x1025                                               1 	(obj:-1)
x1037                                               1 	(obj:-1)
x1047                                               1 	(obj:-1)
x1052                                               1 	(obj:-1)
x1057                                               1 	(obj:-1)
x1085                                               1 	(obj:-1)
x1101                                               1 	(obj:-1)
x1106                                               1 	(obj:-1)
x1119                                               1 	(obj:0)
x1125                                               1 	(obj:0)
x1132                                               1 	(obj:0)
x1143                                               1 	(obj:0)
x1149                                               1 	(obj:0)
x1153                                               1 	(obj:0)
x1161                                               1 	(obj:0)
x1171                                               1 	(obj:0)
x1178                                               1 	(obj:0)
x1187                                               1 	(obj:0)
x1198                                               1 	(obj:0)
x1202                                               1 	(obj:0)
x1214                                               1 	(obj:0)
x1218                                               1 	(obj:0)
x1229                                               1 	(obj:0)
x1235                                               1 	(obj:0)
x1241                                               1 	(obj:0)
x1250                                               1 	(obj:0)
x1261                                               1 	(obj:0)
x1269                                               1 	(obj:0)
x1279                                               1 	(obj:0)
x1281                                               1 	(obj:0)
x1290                                               1 	(obj:0)
x1298                                               1 	(obj:0)
x1310                                               1 	(obj:0)
x1314                                               1 	(obj:0)
x1322                                               1 	(obj:0)
x1329                                               1 	(obj:0)
x1339                                               1 	(obj:0)
x1348                                               1 	(obj:0)
x1354                                               1 	(obj:0)
x1361                                               1 	(obj:0)
x1371                                               1 	(obj:0)
x1379                                               1 	(obj:0)
x1389                                               1 	(obj:0)
x1395                                               1 	(obj:0)
x1403                                               1 	(obj:0)
x1413                                               1 	(obj:0)
x1418                                               1 	(obj:0)
x1431                                               1 	(obj:0)
x1439                                               1 	(obj:0)
x1443                                               1 	(obj:0)
x1453                                               1 	(obj:0)
x1463                                               1 	(obj:0)
x1469                                               1 	(obj:0)
x1476                                               1 	(obj:0)
x1485                                               1 	(obj:0)
x1491                                               1 	(obj:0)
x1497                                               1 	(obj:0)
x1510                                               1 	(obj:0)
x1518                                               1 	(obj:0)
x1525                                               1 	(obj:0)
x1534                                               1 	(obj:0)
x1538                                               1 	(obj:0)
x1547                                               1 	(obj:0)
x1557                                               1 	(obj:0)
x1560                                               1 	(obj:0)
x1573                                               1 	(obj:0)
x1576                                               1 	(obj:0)
x1589                                               1 	(obj:0)
x1597                                               1 	(obj:0)
x1601                                               1 	(obj:0)
x1614                                               1 	(obj:0)
x1622                                               1 	(obj:0)
x1625                                               1 	(obj:0)
x1635                                               1 	(obj:0)
x1643                                               1 	(obj:0)
x1650                                               1 	(obj:0)
x1662                                               1 	(obj:0)
x1664                                               1 	(obj:0)
x1673                                               1 	(obj:0)
x1686                                               1 	(obj:0)
x1693                                               1 	(obj:0)
x1702                                               1 	(obj:0)
x1710                                               1 	(obj:0)
x1718                                               1 	(obj:0)
x1720                                               1 	(obj:0)
x1730                                               1 	(obj:0)
x1742                                               1 	(obj:0)
x1749                                               1 	(obj:0)
x1759                                               1 	(obj:0)
x1767                                               1 	(obj:0)
x1769                                               1 	(obj:0)
x1779                                               1 	(obj:0)
x1787                                               1 	(obj:0)
x1793                                               1 	(obj:0)
x1806                                               1 	(obj:0)
x1809                                               1 	(obj:0)
x1818                                               1 	(obj:0)
x1831                                               1 	(obj:0)
x1839                                               1 	(obj:0)
x1841                                               1 	(obj:0)
x1853                                               1 	(obj:0)
x1863                                               1 	(obj:0)
